1116
1000
1000
1000
1000
1000
1000
1000
1000
1000
1000
1000
1000
1008
1008
1008
1008
966
971
971
971
858
971
936
959
959
959
959
959
959
948
948
948
978
981
981
981
1034
1034
1038
1078
1014
995
995
995
995
995
1044
997
997
1017
970
970
913
913
913
913
963
964
964
913
964
964
964
964
998
998
998
982
905
982
982
936
936
936
925
968
991
986
991
962
932
996
909
935
947
947
947
1002
963
1013
1013
1013
1013
1013
964
993
993
985
985
1025
1025
1001
1001
1001
1001
1001
865
865
865
969
969
969
969
981
974
972
980
980
915
915
946
978
939
939
939
939
898
898
897
968
987
990
990
898
898
898
956
983
916
918
991
922
922
922
922
922
922
922
922
958
963
968
959
867
867
952
952
926
926
926
931
887
931
950
950
950
950
931
954
973
948
948
903
973
819
937
937
937
937
928
928
928
866
874
824
935
867
901
901
964
919
924
980
980
920
914
914
880
880
880
880
899
838
935
933
929
933
929
933
874
874
874
922
936
909
961
928
890
890
890
848
786
786
786
786
786
876
876
845
845
845
796
796
796
834
834
834
834
834
874
892
885
885
885
846
846
846
846
868
827
827
797
797
864
855
855
855
858
880
880
889
913
913
861
861
861
810
810
909
827
882
801
808
808
808
808
911
911
929
875
856
847
847
847
847
847
847
867
867
878
864
864
864
864
801
801
801
801
913
927
884
930
894
867
838
788
838
838
838
838
838
827
827
827
827
819
840
840
853
789
789
789
789
850
850
850
851
850
851
890
890
667
667
862
862
862
862
825
752
752
752
752
752
752
752
752
752
752
752
752
782
782
782
766
811
830
780
780
780
782
782
809
823
842
842
872
872
867
867
853
803
803
803
803
803
784
784
784
803
775
747
823
878
858
816
816
749
749
749
749
749
856
822
822
771
797
865
811
811
832
832
832
830
830
773
773
710
710
679
679
710
710
786
722
722
718
718
718
718
722
722
722
799
835
835
806
806
765
765
765
806
806
806
806
745
745
739
739
739
739
739
739
739
739
739
739
739
736
736
736
719
739
739
736
736
736
739
766
708
773
773
769
769
750
758
758
758
705
705
756
756
638
700
700
700
700
652
738
733
733
737
737
737
703
703
703
758
734
734
734
734
734
734
681
733
733
733
665
665
665
665
665
647
665
665
640
640
640
640
640
665
665
665
665
632
665
665
665
665
665
665
665
665
669
678
690
678
678
678
743
671
670
638
638
638
618
740
740
729
721
697
656
656
656
656
656
648
656
656
656
656
656
743
743
722
741
743
651
641
641
641
641
723
704
727
726
638
638
718
719
727
727
742
546
546
546
731
731
731
696
648
648
648
660
701
701
667
667
695
695
695
707
712
702
680
680
680
680
680
680
680
680
680
680
680
680
680
680
680
680
680
680
667
667
621
668
667
667
610
610
610
610
610
581
610
610
610
610
623
635
635
625
647
640
640
640
640
640
640
704
704
618
618
661
651
651
651
651
651
651
651
651
651
651
617
646
630
646
646
670
643
643
677
677
591
591
591
591
591
591
624
624
568
596
596
596
596
596
596
596
596
596
596
596
596
596
606
606
639
589
589
589
589
589
589
589
609
639
615
615
639
632
596
596
596
596
596
639
639
557
557
587
587
587
587
587
669
669
669
612
649
589
589
576
477
477
477
597
563
619
614
614
601
601
618
526
628
623
635
648
648
635
575
521
610
561
561
550
561
495
495
495
495
495
495
495
495
495
495
541
545
590
598
599
597
615
604
604
597
563
563
563
538
538
538
538
523
523
523
523
523
523
523
523
523
519
519
519
519
519
519
522
549
549
560
560
560
532
532
532
532
532
530
530
530
528
528
522
528
522
535
535
545
507
507
507
545
545
541
530
530
506
524
530
521
520
520
502
502
502
502
502
502
518
518
521
520
520
471
471
471
471
471
471
471
471
471
471
471
471
471
471
473
490
467
467
456
435
435
435
494
485
485
431
431
431
431
431
431
431
431
431
431
431
431
431
445
445
445
445
445
445
445
481
445
459
414
454
454
460
453
452
449
449
449
449
454
449
460
445
460
430
370
370
370
370
370
370
370
370
406
406
386
386
386
386
386
399
406
406
406
406
432
413
440
429
435
399
415
415
415
415
415
414
399
377
377
377
399
392
392
387
387
387
370
370
370
370
370
370
380
380
389
387
387
387
370
384
384
384
370
384
384
384
366
366
370
370
370
370
370
377
377
377
366
366
376
377
352
352
377
352
352
377
376
376
376
377
376
376
370
370
370
370
366
366
366
377
366
366
366
366
366
377
377
364
344
344
344
344
344
344
344
344
364
364
364
367
367
367
344
344
359
359
359
370
370
344
370
357
344
344
343
343
343
344
343
344
366
366
366
344
366
366
344
344
344
344
359
366
366
370
359
359
359
359
359
366
344
344
344
344
344
366
366
366
370
370
366
366
366
366
366
366
366
370
366
366
366
366
366
353
366
366
366
366
366
366
366
366
366
366
366
366
332
366
366
366
366
366
366
370
366
366
366
370
370
370
343
344
370
370
366
366
370
370
370
370
370
370
370
370
370
370
370
370
370
370
370
370
370
370
370
370
370
370
370
370
370
370
370
370
370
370
344
344
344
344
344
344
344
344
344
344
344
344
344
344
344
344
344
344
343
343
343
343
344
344
344
343
343
343
343
344
344
344
344
344
344
344
343
343
344
344
344
344
344
344
344
344
344
344
344
344
344
344
344
344
344
359
359
359
344
344
344
344
344
344
344
344
344
344
344
344
344
343
343
343
343
344
344
344
344
344
344
344
344
344
344
344
344
344
344
344
344
344
344
344
344
344
343
343
344
344
344
344
343
343
343
343
343
343
343
343
343
343
343
343
343
343
343
343
343
343
343
343
343
343
343
343
343
343
343
343
343
343
344
344
344
344
344
344
344
344
344
344
344
344
344
344
344
344
344
344
344
344
344
344
344
344
344
344
344
344
344
344
344
344
344
344
344
344
344
344
344
344
344
344
344
344
344
344
344
344
344
344
344
344
344
344
344
344
344
344
344
344
344
344
344
344
344
344
344
344
344
344
344
344
344
344
344
344
344
344
344
344
344
344
344
344
344
344
344
344
344
344
344
344
344
344
344
344
344
344
344
344
344
343
343
343
343
343
343
343
343
343
343
343
343
343
343
343
343
343
343
344
344
344
344
344
344
343
343
343
343
343
343
343
343
343
343
343
343
343
343
343
343
343
343
343
343
343
343
343
343
343
343
343
343
343
343
343
343
343
343
343
343
343
343
343
343
343
343
343
343
343
343
343
343
343
343
343
343
343
343
343
343
343
343
343
343
343
343
343
343
343
343
343
343
343
343
343
343
343
343
343
343
343
343
343
343
343
343
343
343
343
344
344
344
344
344
344
344
344
344
344
344
344
344
344
344
344
344
344
344
344
344
344
344
344
344
344
344
344
344
344
344
344
344
344
344
344
344
344
344
344
344
344
344
344
344
344
344
344
344
344
344
344
344
344
344
344
344
344
344
344
344
344
344
344
344
344
344
344
344
344
343
344
344
344
344
344
344
344
344
344
344
344
344
344
344
344
344
344
344
344
344
344
344
344
344
344
344
344
344
344
344
344
344
344
344
344
343
344
344
344
344
343
344
344
344
344
344
344
344
344
344
344
344
344
344
344
344
344
344
344
344
344
344
344
344
344
344
344
343
344
344
344
344
343
343
343
343
343
343
343
343
343
343
343
343
343
343
343
343
343
343
343
343
343
343
343
343
343
343
343
343
343
343
343
343
343
343
343
343
343
343
343
343
343
343
343
343
343
343
343
343
343
343
343
343
343
343
343
343
343
343
343
343
343
343
343
343
343
343
343
343
343
343
343
343
343
343
343
343
343
343
343
343
344
344
344
344
344
344
344
344
344
344
344
344
344
344
344
344
344
344
344
344
344
344
344
344
344
344
344
344
344
344
344
344
344
344
344
344
344
344
344
344
344
344
344
344
344
344
344
344
344
344
344
344
344
344
344
344
344
344
344
344
344
344
344
344
344
344
344
344
344
344
344
344
344
344
344
344
344
344
344
344
344
344
344
343
344
344
344
344
344
344
344
344
344
344
344
344
344
344
344
344
344
344
344
343
343
343
343
343
343
343
343
344
344
344
344
344
344
344
343
343
343
343
343
343
343
343
344
344
344
344
344
344
344
344
344
344
344
344
344
344
344
344
344
344
344
344
344
344
344
344
344
344
344
344
344
344
344
344
344
344
344
344
344
343
343
343
344
344
344
344
344
344
344
344
344
344
344
344
344
344
344
344
344
344
344
344
344
344
344
344
344
344
344
344
344
344
344
344
343
344
344
344
344
343
344
344
344
344
344
344
344
344
344
344
344
344
344
344
344
344
344
344
344
344
344
344
344
344
344
344
344
344
344
344
344
344
344
344
344
344
344
344
344
344
344
344
344
344
344
344
344
344
344
343
344
344
344
344
344
344
344
344
344
344
344
344
344
344
343
343
343
343
343
343
343
343
344
344
344
344
344
344
344
344
344
344
344
344
344
344
